p cnf 15 32
-3 0
-2 0
-1 0
14 -4 15 0
-7 11 6 0
5 12 0
11 15 4 0
-11 12 -7 0
4 13 -6 0
-13 -6 -9 0
4 -15 14 0
14 5 -6 0
9 4 -11 0
-6 -5 12 0
4 10 0
15 13 14 0
15 9 -10 0
14 -7 -8 0
8 -12 4 0
-15 10 8 0
-10 11 0
-11 -13 10 0
-12 -13 9 0
-7 14 0
9 -14 8 0
-8 -7 15 0
10 13 -7 0
12 -6 5 0
-10 15 8 0
-6 -14 0
-8 -5 9 0
-10 15 4 0
